c "random instance"
p edges 150 4476
e 1 2
e 1 3
e 1 4
e 1 6
e 1 7
e 1 9
e 1 13
e 1 14
e 1 15
e 1 16
e 1 22
e 1 23
e 1 24
e 1 28
e 1 29
e 1 30
e 1 32
e 1 34
e 1 35
e 1 36
e 1 37
e 1 38
e 1 42
e 1 44
e 1 45
e 1 48
e 1 51
e 1 53
e 1 59
e 1 63
e 1 64
e 1 71
e 1 74
e 1 75
e 1 79
e 1 81
e 1 83
e 1 90
e 1 93
e 1 96
e 1 97
e 1 100
e 1 103
e 1 106
e 1 108
e 1 112
e 1 113
e 1 115
e 1 117
e 1 124
e 1 131
e 1 133
e 1 139
e 1 142
e 1 145
e 1 146
e 2 5
e 2 7
e 2 12
e 2 15
e 2 18
e 2 23
e 2 26
e 2 28
e 2 33
e 2 36
e 2 37
e 2 41
e 2 45
e 2 46
e 2 47
e 2 52
e 2 53
e 2 54
e 2 59
e 2 60
e 2 61
e 2 65
e 2 66
e 2 71
e 2 78
e 2 80
e 2 81
e 2 83
e 2 85
e 2 88
e 2 92
e 2 93
e 2 95
e 2 96
e 2 97
e 2 99
e 2 100
e 2 102
e 2 103
e 2 106
e 2 108
e 2 110
e 2 112
e 2 121
e 2 123
e 2 125
e 2 126
e 2 131
e 2 135
e 2 137
e 2 145
e 3 5
e 3 8
e 3 9
e 3 10
e 3 14
e 3 15
e 3 16
e 3 18
e 3 19
e 3 25
e 3 28
e 3 29
e 3 30
e 3 31
e 3 32
e 3 34
e 3 38
e 3 42
e 3 44
e 3 48
e 3 52
e 3 54
e 3 55
e 3 56
e 3 57
e 3 59
e 3 61
e 3 62
e 3 64
e 3 73
e 3 74
e 3 75
e 3 76
e 3 78
e 3 81
e 3 88
e 3 89
e 3 90
e 3 91
e 3 92
e 3 94
e 3 97
e 3 98
e 3 100
e 3 103
e 3 104
e 3 108
e 3 111
e 3 112
e 3 115
e 3 117
e 3 119
e 3 122
e 3 123
e 3 124
e 3 126
e 3 127
e 3 128
e 3 131
e 3 136
e 3 138
e 3 140
e 3 143
e 3 144
e 3 148
e 3 149
e 4 6
e 4 8
e 4 9
e 4 10
e 4 13
e 4 14
e 4 15
e 4 16
e 4 18
e 4 19
e 4 25
e 4 26
e 4 30
e 4 32
e 4 38
e 4 39
e 4 43
e 4 49
e 4 52
e 4 54
e 4 55
e 4 56
e 4 63
e 4 65
e 4 67
e 4 70
e 4 72
e 4 81
e 4 84
e 4 85
e 4 86
e 4 88
e 4 91
e 4 92
e 4 94
e 4 95
e 4 96
e 4 98
e 4 101
e 4 102
e 4 110
e 4 113
e 4 115
e 4 118
e 4 119
e 4 125
e 4 134
e 4 135
e 4 136
e 4 138
e 4 140
e 4 142
e 4 144
e 4 145
e 4 146
e 4 147
e 4 150
e 5 7
e 5 8
e 5 16
e 5 17
e 5 22
e 5 26
e 5 27
e 5 28
e 5 30
e 5 32
e 5 33
e 5 34
e 5 38
e 5 44
e 5 46
e 5 47
e 5 55
e 5 57
e 5 59
e 5 60
e 5 63
e 5 70
e 5 72
e 5 73
e 5 75
e 5 76
e 5 77
e 5 79
e 5 80
e 5 84
e 5 88
e 5 90
e 5 91
e 5 94
e 5 99
e 5 100
e 5 103
e 5 104
e 5 106
e 5 109
e 5 111
e 5 113
e 5 114
e 5 115
e 5 117
e 5 119
e 5 120
e 5 128
e 5 129
e 5 130
e 5 134
e 5 135
e 5 137
e 5 140
e 5 141
e 5 145
e 5 146
e 5 148
e 6 7
e 6 11
e 6 13
e 6 15
e 6 16
e 6 17
e 6 19
e 6 21
e 6 22
e 6 23
e 6 26
e 6 28
e 6 32
e 6 34
e 6 35
e 6 40
e 6 41
e 6 42
e 6 45
e 6 47
e 6 49
e 6 50
e 6 51
e 6 58
e 6 60
e 6 69
e 6 76
e 6 80
e 6 88
e 6 89
e 6 92
e 6 96
e 6 99
e 6 100
e 6 101
e 6 103
e 6 104
e 6 106
e 6 107
e 6 108
e 6 110
e 6 112
e 6 113
e 6 115
e 6 119
e 6 121
e 6 123
e 6 124
e 6 125
e 6 127
e 6 128
e 6 130
e 6 131
e 6 132
e 6 133
e 6 134
e 6 138
e 6 139
e 6 141
e 6 144
e 6 145
e 6 146
e 6 147
e 6 148
e 6 150
e 7 11
e 7 13
e 7 15
e 7 21
e 7 23
e 7 25
e 7 26
e 7 29
e 7 32
e 7 33
e 7 34
e 7 35
e 7 36
e 7 41
e 7 42
e 7 43
e 7 44
e 7 47
e 7 49
e 7 52
e 7 53
e 7 57
e 7 58
e 7 63
e 7 66
e 7 69
e 7 70
e 7 72
e 7 75
e 7 76
e 7 79
e 7 80
e 7 82
e 7 83
e 7 87
e 7 88
e 7 90
e 7 92
e 7 94
e 7 97
e 7 99
e 7 103
e 7 106
e 7 107
e 7 109
e 7 110
e 7 111
e 7 115
e 7 118
e 7 119
e 7 120
e 7 122
e 7 124
e 7 126
e 7 127
e 7 129
e 7 134
e 7 136
e 7 139
e 7 140
e 7 141
e 7 150
e 8 10
e 8 12
e 8 13
e 8 19
e 8 20
e 8 21
e 8 22
e 8 30
e 8 31
e 8 32
e 8 34
e 8 35
e 8 36
e 8 37
e 8 38
e 8 39
e 8 41
e 8 43
e 8 45
e 8 49
e 8 50
e 8 51
e 8 53
e 8 56
e 8 57
e 8 59
e 8 61
e 8 63
e 8 64
e 8 66
e 8 74
e 8 75
e 8 77
e 8 81
e 8 82
e 8 83
e 8 90
e 8 93
e 8 96
e 8 97
e 8 98
e 8 99
e 8 100
e 8 102
e 8 106
e 8 107
e 8 109
e 8 110
e 8 113
e 8 121
e 8 123
e 8 124
e 8 127
e 8 131
e 8 132
e 8 133
e 8 138
e 8 142
e 8 143
e 8 145
e 8 146
e 8 149
e 9 10
e 9 13
e 9 17
e 9 22
e 9 23
e 9 30
e 9 33
e 9 40
e 9 42
e 9 45
e 9 49
e 9 50
e 9 51
e 9 52
e 9 54
e 9 55
e 9 57
e 9 60
e 9 62
e 9 67
e 9 71
e 9 73
e 9 74
e 9 75
e 9 76
e 9 77
e 9 78
e 9 80
e 9 82
e 9 83
e 9 84
e 9 86
e 9 88
e 9 90
e 9 92
e 9 97
e 9 98
e 9 99
e 9 100
e 9 101
e 9 103
e 9 107
e 9 108
e 9 109
e 9 110
e 9 115
e 9 116
e 9 117
e 9 123
e 9 129
e 9 130
e 9 133
e 9 137
e 9 142
e 9 147
e 9 148
e 9 149
e 10 11
e 10 14
e 10 23
e 10 26
e 10 27
e 10 30
e 10 31
e 10 34
e 10 35
e 10 38
e 10 40
e 10 42
e 10 44
e 10 47
e 10 51
e 10 52
e 10 61
e 10 62
e 10 63
e 10 64
e 10 65
e 10 67
e 10 68
e 10 69
e 10 71
e 10 72
e 10 73
e 10 76
e 10 78
e 10 79
e 10 82
e 10 85
e 10 87
e 10 89
e 10 91
e 10 92
e 10 95
e 10 96
e 10 97
e 10 98
e 10 99
e 10 101
e 10 103
e 10 104
e 10 105
e 10 107
e 10 109
e 10 112
e 10 118
e 10 120
e 10 121
e 10 123
e 10 124
e 10 126
e 10 127
e 10 132
e 10 139
e 10 140
e 10 142
e 10 145
e 10 147
e 10 150
e 11 12
e 11 21
e 11 22
e 11 25
e 11 27
e 11 30
e 11 35
e 11 39
e 11 51
e 11 59
e 11 62
e 11 63
e 11 64
e 11 65
e 11 67
e 11 68
e 11 69
e 11 72
e 11 77
e 11 79
e 11 80
e 11 81
e 11 88
e 11 91
e 11 97
e 11 99
e 11 102
e 11 103
e 11 104
e 11 105
e 11 107
e 11 110
e 11 111
e 11 114
e 11 118
e 11 119
e 11 124
e 11 130
e 11 132
e 11 136
e 11 139
e 11 144
e 11 145
e 11 146
e 11 147
e 11 150
e 12 19
e 12 21
e 12 24
e 12 27
e 12 30
e 12 35
e 12 36
e 12 39
e 12 41
e 12 44
e 12 47
e 12 48
e 12 52
e 12 53
e 12 59
e 12 60
e 12 61
e 12 63
e 12 66
e 12 70
e 12 71
e 12 72
e 12 73
e 12 75
e 12 76
e 12 77
e 12 79
e 12 83
e 12 84
e 12 85
e 12 86
e 12 87
e 12 90
e 12 91
e 12 100
e 12 102
e 12 103
e 12 108
e 12 109
e 12 110
e 12 111
e 12 113
e 12 115
e 12 117
e 12 123
e 12 127
e 12 129
e 12 135
e 12 136
e 12 141
e 12 145
e 12 150
e 13 15
e 13 16
e 13 18
e 13 19
e 13 24
e 13 25
e 13 26
e 13 29
e 13 38
e 13 40
e 13 46
e 13 47
e 13 48
e 13 52
e 13 53
e 13 56
e 13 58
e 13 59
e 13 60
e 13 63
e 13 64
e 13 65
e 13 69
e 13 70
e 13 74
e 13 76
e 13 77
e 13 79
e 13 81
e 13 88
e 13 98
e 13 101
e 13 102
e 13 104
e 13 108
e 13 109
e 13 113
e 13 123
e 13 124
e 13 127
e 13 130
e 13 131
e 13 132
e 13 134
e 13 136
e 13 138
e 13 139
e 13 140
e 13 143
e 13 144
e 13 145
e 13 146
e 14 15
e 14 16
e 14 21
e 14 24
e 14 25
e 14 26
e 14 27
e 14 29
e 14 31
e 14 33
e 14 34
e 14 36
e 14 37
e 14 38
e 14 41
e 14 43
e 14 47
e 14 48
e 14 51
e 14 52
e 14 53
e 14 55
e 14 57
e 14 58
e 14 62
e 14 64
e 14 66
e 14 67
e 14 70
e 14 72
e 14 75
e 14 78
e 14 79
e 14 80
e 14 82
e 14 83
e 14 87
e 14 89
e 14 91
e 14 92
e 14 96
e 14 101
e 14 106
e 14 110
e 14 117
e 14 119
e 14 123
e 14 124
e 14 126
e 14 130
e 14 131
e 14 135
e 14 136
e 14 137
e 14 140
e 14 142
e 14 143
e 14 145
e 14 147
e 14 149
e 14 150
e 15 16
e 15 18
e 15 22
e 15 23
e 15 25
e 15 27
e 15 28
e 15 29
e 15 31
e 15 33
e 15 35
e 15 37
e 15 42
e 15 44
e 15 45
e 15 46
e 15 47
e 15 48
e 15 51
e 15 52
e 15 53
e 15 55
e 15 61
e 15 64
e 15 66
e 15 69
e 15 70
e 15 76
e 15 80
e 15 81
e 15 82
e 15 85
e 15 88
e 15 89
e 15 91
e 15 94
e 15 96
e 15 98
e 15 99
e 15 101
e 15 106
e 15 107
e 15 109
e 15 111
e 15 112
e 15 117
e 15 118
e 15 123
e 15 127
e 15 128
e 15 132
e 15 134
e 15 136
e 15 139
e 15 141
e 15 143
e 15 144
e 15 147
e 15 148
e 15 149
e 15 150
e 16 28
e 16 30
e 16 35
e 16 39
e 16 42
e 16 45
e 16 48
e 16 51
e 16 52
e 16 54
e 16 56
e 16 63
e 16 70
e 16 76
e 16 77
e 16 78
e 16 82
e 16 87
e 16 90
e 16 94
e 16 97
e 16 98
e 16 99
e 16 100
e 16 101
e 16 103
e 16 105
e 16 106
e 16 110
e 16 116
e 16 117
e 16 119
e 16 122
e 16 126
e 16 127
e 16 133
e 16 135
e 16 139
e 16 141
e 16 142
e 16 143
e 16 146
e 16 149
e 17 18
e 17 20
e 17 27
e 17 30
e 17 33
e 17 35
e 17 36
e 17 38
e 17 39
e 17 40
e 17 48
e 17 51
e 17 52
e 17 53
e 17 54
e 17 56
e 17 59
e 17 61
e 17 63
e 17 67
e 17 72
e 17 77
e 17 79
e 17 84
e 17 85
e 17 86
e 17 87
e 17 91
e 17 93
e 17 95
e 17 99
e 17 101
e 17 102
e 17 103
e 17 104
e 17 105
e 17 106
e 17 107
e 17 108
e 17 110
e 17 116
e 17 117
e 17 118
e 17 121
e 17 123
e 17 130
e 17 135
e 17 138
e 17 142
e 17 144
e 17 146
e 17 147
e 18 27
e 18 28
e 18 29
e 18 33
e 18 34
e 18 36
e 18 38
e 18 57
e 18 58
e 18 60
e 18 61
e 18 62
e 18 65
e 18 66
e 18 67
e 18 69
e 18 71
e 18 72
e 18 74
e 18 75
e 18 76
e 18 78
e 18 79
e 18 80
e 18 81
e 18 83
e 18 88
e 18 90
e 18 101
e 18 103
e 18 104
e 18 109
e 18 110
e 18 111
e 18 112
e 18 113
e 18 114
e 18 115
e 18 123
e 18 128
e 18 133
e 18 136
e 18 137
e 18 138
e 18 139
e 18 143
e 18 146
e 18 147
e 19 20
e 19 23
e 19 26
e 19 28
e 19 31
e 19 32
e 19 36
e 19 40
e 19 42
e 19 43
e 19 46
e 19 48
e 19 49
e 19 56
e 19 57
e 19 63
e 19 64
e 19 70
e 19 74
e 19 75
e 19 76
e 19 77
e 19 79
e 19 80
e 19 83
e 19 87
e 19 89
e 19 91
e 19 94
e 19 98
e 19 99
e 19 101
e 19 109
e 19 112
e 19 115
e 19 117
e 19 118
e 19 121
e 19 126
e 19 128
e 19 129
e 19 132
e 19 135
e 19 138
e 19 139
e 19 141
e 19 142
e 19 145
e 19 150
e 20 21
e 20 23
e 20 32
e 20 34
e 20 35
e 20 36
e 20 37
e 20 38
e 20 39
e 20 40
e 20 43
e 20 44
e 20 46
e 20 51
e 20 52
e 20 59
e 20 60
e 20 63
e 20 67
e 20 68
e 20 69
e 20 71
e 20 76
e 20 78
e 20 79
e 20 82
e 20 86
e 20 87
e 20 88
e 20 89
e 20 92
e 20 96
e 20 104
e 20 106
e 20 108
e 20 111
e 20 113
e 20 118
e 20 120
e 20 121
e 20 122
e 20 123
e 20 131
e 20 132
e 20 142
e 20 143
e 20 144
e 20 148
e 20 149
e 20 150
e 21 24
e 21 25
e 21 26
e 21 30
e 21 32
e 21 34
e 21 35
e 21 42
e 21 44
e 21 49
e 21 50
e 21 51
e 21 56
e 21 57
e 21 59
e 21 62
e 21 63
e 21 67
e 21 70
e 21 71
e 21 76
e 21 77
e 21 78
e 21 79
e 21 80
e 21 81
e 21 83
e 21 86
e 21 96
e 21 102
e 21 105
e 21 107
e 21 109
e 21 110
e 21 111
e 21 113
e 21 114
e 21 116
e 21 117
e 21 121
e 21 123
e 21 128
e 21 129
e 21 132
e 21 133
e 21 134
e 21 135
e 21 136
e 21 137
e 21 140
e 21 142
e 21 143
e 21 149
e 22 24
e 22 25
e 22 28
e 22 29
e 22 30
e 22 32
e 22 33
e 22 36
e 22 37
e 22 39
e 22 41
e 22 43
e 22 44
e 22 46
e 22 47
e 22 49
e 22 52
e 22 54
e 22 62
e 22 66
e 22 69
e 22 70
e 22 74
e 22 78
e 22 79
e 22 82
e 22 86
e 22 88
e 22 91
e 22 96
e 22 98
e 22 99
e 22 100
e 22 101
e 22 102
e 22 113
e 22 114
e 22 115
e 22 118
e 22 119
e 22 120
e 22 127
e 22 130
e 22 131
e 22 133
e 22 139
e 22 140
e 22 144
e 22 146
e 22 147
e 23 25
e 23 26
e 23 28
e 23 33
e 23 39
e 23 45
e 23 46
e 23 54
e 23 56
e 23 59
e 23 60
e 23 62
e 23 63
e 23 68
e 23 70
e 23 72
e 23 74
e 23 76
e 23 77
e 23 78
e 23 79
e 23 80
e 23 81
e 23 82
e 23 84
e 23 89
e 23 90
e 23 91
e 23 93
e 23 98
e 23 99
e 23 100
e 23 101
e 23 104
e 23 107
e 23 108
e 23 111
e 23 113
e 23 114
e 23 118
e 23 119
e 23 122
e 23 123
e 23 124
e 23 126
e 23 129
e 23 132
e 23 134
e 23 135
e 23 138
e 23 139
e 23 141
e 23 143
e 23 144
e 23 145
e 23 149
e 24 25
e 24 30
e 24 31
e 24 34
e 24 35
e 24 36
e 24 39
e 24 44
e 24 48
e 24 49
e 24 51
e 24 52
e 24 53
e 24 55
e 24 57
e 24 58
e 24 59
e 24 70
e 24 71
e 24 75
e 24 76
e 24 77
e 24 79
e 24 81
e 24 83
e 24 86
e 24 88
e 24 89
e 24 92
e 24 93
e 24 95
e 24 96
e 24 97
e 24 98
e 24 99
e 24 102
e 24 105
e 24 108
e 24 110
e 24 113
e 24 118
e 24 119
e 24 129
e 24 132
e 24 134
e 24 136
e 24 141
e 24 142
e 24 147
e 24 149
e 25 26
e 25 27
e 25 28
e 25 32
e 25 33
e 25 35
e 25 39
e 25 41
e 25 46
e 25 47
e 25 48
e 25 52
e 25 54
e 25 60
e 25 61
e 25 64
e 25 65
e 25 67
e 25 69
e 25 70
e 25 76
e 25 79
e 25 86
e 25 89
e 25 90
e 25 93
e 25 97
e 25 99
e 25 103
e 25 104
e 25 107
e 25 109
e 25 120
e 25 121
e 25 127
e 25 128
e 25 133
e 25 134
e 25 135
e 25 137
e 25 142
e 25 145
e 25 146
e 25 147
e 25 148
e 26 31
e 26 33
e 26 34
e 26 36
e 26 40
e 26 45
e 26 48
e 26 53
e 26 54
e 26 57
e 26 58
e 26 60
e 26 63
e 26 67
e 26 68
e 26 69
e 26 70
e 26 71
e 26 74
e 26 77
e 26 78
e 26 80
e 26 84
e 26 85
e 26 86
e 26 91
e 26 93
e 26 94
e 26 96
e 26 97
e 26 98
e 26 99
e 26 101
e 26 103
e 26 104
e 26 105
e 26 109
e 26 110
e 26 111
e 26 116
e 26 118
e 26 119
e 26 125
e 26 133
e 26 137
e 26 146
e 26 147
e 26 150
e 27 28
e 27 31
e 27 32
e 27 39
e 27 40
e 27 44
e 27 45
e 27 48
e 27 49
e 27 52
e 27 53
e 27 57
e 27 60
e 27 61
e 27 64
e 27 65
e 27 66
e 27 70
e 27 73
e 27 79
e 27 81
e 27 82
e 27 84
e 27 88
e 27 89
e 27 90
e 27 91
e 27 92
e 27 93
e 27 95
e 27 97
e 27 100
e 27 101
e 27 105
e 27 107
e 27 111
e 27 112
e 27 113
e 27 115
e 27 117
e 27 118
e 27 119
e 27 120
e 27 122
e 27 123
e 27 124
e 27 125
e 27 126
e 27 127
e 27 128
e 27 129
e 27 138
e 27 140
e 27 141
e 27 142
e 27 143
e 27 144
e 27 145
e 27 149
e 28 35
e 28 37
e 28 39
e 28 42
e 28 43
e 28 50
e 28 52
e 28 54
e 28 60
e 28 66
e 28 72
e 28 74
e 28 77
e 28 78
e 28 81
e 28 83
e 28 84
e 28 87
e 28 89
e 28 92
e 28 95
e 28 100
e 28 103
e 28 105
e 28 107
e 28 108
e 28 128
e 28 129
e 28 133
e 28 134
e 28 135
e 28 138
e 28 139
e 28 143
e 28 144
e 28 148
e 29 31
e 29 33
e 29 34
e 29 36
e 29 37
e 29 38
e 29 39
e 29 41
e 29 43
e 29 44
e 29 46
e 29 47
e 29 50
e 29 54
e 29 57
e 29 58
e 29 59
e 29 60
e 29 61
e 29 64
e 29 65
e 29 68
e 29 73
e 29 75
e 29 76
e 29 81
e 29 82
e 29 92
e 29 93
e 29 96
e 29 104
e 29 105
e 29 109
e 29 111
e 29 112
e 29 115
e 29 116
e 29 119
e 29 122
e 29 126
e 29 127
e 29 128
e 29 129
e 29 131
e 29 141
e 29 142
e 29 143
e 29 147
e 30 31
e 30 34
e 30 37
e 30 38
e 30 43
e 30 44
e 30 45
e 30 46
e 30 49
e 30 51
e 30 53
e 30 55
e 30 56
e 30 65
e 30 67
e 30 71
e 30 72
e 30 73
e 30 75
e 30 76
e 30 80
e 30 81
e 30 88
e 30 89
e 30 91
e 30 93
e 30 94
e 30 96
e 30 102
e 30 103
e 30 104
e 30 108
e 30 109
e 30 111
e 30 117
e 30 119
e 30 127
e 30 130
e 30 131
e 30 132
e 30 133
e 30 134
e 30 138
e 30 139
e 30 140
e 30 142
e 30 146
e 30 149
e 30 150
e 31 34
e 31 35
e 31 37
e 31 43
e 31 44
e 31 45
e 31 47
e 31 48
e 31 50
e 31 51
e 31 52
e 31 54
e 31 59
e 31 60
e 31 65
e 31 66
e 31 68
e 31 69
e 31 70
e 31 71
e 31 73
e 31 74
e 31 75
e 31 79
e 31 86
e 31 87
e 31 88
e 31 89
e 31 91
e 31 95
e 31 96
e 31 97
e 31 98
e 31 101
e 31 104
e 31 105
e 31 106
e 31 107
e 31 108
e 31 109
e 31 110
e 31 111
e 31 114
e 31 117
e 31 118
e 31 121
e 31 123
e 31 124
e 31 126
e 31 128
e 31 131
e 31 132
e 31 135
e 31 136
e 31 138
e 31 139
e 31 141
e 31 143
e 31 146
e 31 150
e 32 34
e 32 35
e 32 36
e 32 37
e 32 40
e 32 46
e 32 49
e 32 51
e 32 52
e 32 53
e 32 57
e 32 63
e 32 67
e 32 68
e 32 69
e 32 72
e 32 79
e 32 80
e 32 81
e 32 83
e 32 85
e 32 90
e 32 91
e 32 92
e 32 94
e 32 100
e 32 103
e 32 104
e 32 109
e 32 110
e 32 111
e 32 112
e 32 114
e 32 118
e 32 122
e 32 126
e 32 127
e 32 132
e 32 133
e 32 135
e 32 138
e 32 139
e 32 141
e 32 142
e 32 144
e 32 147
e 32 148
e 32 150
e 33 35
e 33 37
e 33 38
e 33 40
e 33 41
e 33 42
e 33 43
e 33 44
e 33 47
e 33 50
e 33 52
e 33 55
e 33 56
e 33 58
e 33 59
e 33 62
e 33 64
e 33 67
e 33 70
e 33 71
e 33 75
e 33 79
e 33 80
e 33 82
e 33 84
e 33 88
e 33 89
e 33 92
e 33 97
e 33 99
e 33 102
e 33 103
e 33 106
e 33 115
e 33 116
e 33 120
e 33 121
e 33 129
e 33 130
e 33 140
e 33 144
e 33 149
e 33 150
e 34 44
e 34 46
e 34 47
e 34 48
e 34 49
e 34 50
e 34 51
e 34 52
e 34 55
e 34 56
e 34 60
e 34 61
e 34 62
e 34 65
e 34 69
e 34 76
e 34 77
e 34 82
e 34 87
e 34 89
e 34 91
e 34 93
e 34 97
e 34 99
e 34 102
e 34 104
e 34 105
e 34 106
e 34 107
e 34 111
e 34 112
e 34 113
e 34 115
e 34 116
e 34 117
e 34 120
e 34 122
e 34 123
e 34 128
e 34 129
e 34 130
e 34 132
e 34 133
e 34 136
e 34 139
e 34 144
e 34 145
e 34 146
e 34 147
e 35 39
e 35 40
e 35 49
e 35 56
e 35 59
e 35 60
e 35 63
e 35 65
e 35 68
e 35 75
e 35 76
e 35 77
e 35 79
e 35 85
e 35 90
e 35 94
e 35 95
e 35 96
e 35 97
e 35 101
e 35 102
e 35 103
e 35 111
e 35 113
e 35 116
e 35 118
e 35 119
e 35 123
e 35 128
e 35 130
e 35 133
e 35 138
e 35 139
e 35 141
e 35 142
e 35 144
e 35 146
e 35 149
e 36 38
e 36 40
e 36 41
e 36 45
e 36 47
e 36 50
e 36 53
e 36 54
e 36 58
e 36 59
e 36 67
e 36 75
e 36 76
e 36 79
e 36 81
e 36 85
e 36 87
e 36 88
e 36 90
e 36 94
e 36 97
e 36 99
e 36 101
e 36 102
e 36 104
e 36 105
e 36 106
e 36 107
e 36 108
e 36 109
e 36 110
e 36 114
e 36 117
e 36 119
e 36 120
e 36 123
e 36 126
e 36 127
e 36 128
e 36 130
e 36 133
e 36 135
e 36 138
e 36 140
e 36 141
e 36 144
e 37 40
e 37 41
e 37 43
e 37 48
e 37 50
e 37 52
e 37 69
e 37 78
e 37 79
e 37 91
e 37 95
e 37 106
e 37 109
e 37 110
e 37 112
e 37 116
e 37 117
e 37 118
e 37 119
e 37 121
e 37 123
e 37 127
e 37 128
e 37 133
e 37 134
e 37 137
e 37 140
e 37 144
e 37 147
e 37 148
e 37 149
e 38 40
e 38 42
e 38 50
e 38 53
e 38 54
e 38 58
e 38 59
e 38 62
e 38 65
e 38 66
e 38 71
e 38 72
e 38 74
e 38 76
e 38 77
e 38 85
e 38 90
e 38 91
e 38 93
e 38 95
e 38 96
e 38 97
e 38 98
e 38 102
e 38 105
e 38 109
e 38 111
e 38 113
e 38 114
e 38 117
e 38 120
e 38 123
e 38 124
e 38 126
e 38 127
e 38 129
e 38 131
e 38 136
e 38 138
e 38 139
e 38 141
e 38 142
e 38 143
e 38 147
e 38 150
e 39 40
e 39 45
e 39 49
e 39 52
e 39 58
e 39 64
e 39 65
e 39 68
e 39 69
e 39 71
e 39 73
e 39 80
e 39 81
e 39 84
e 39 91
e 39 94
e 39 95
e 39 100
e 39 101
e 39 105
e 39 108
e 39 110
e 39 116
e 39 117
e 39 120
e 39 121
e 39 123
e 39 124
e 39 126
e 39 131
e 39 136
e 39 144
e 39 146
e 39 147
e 39 150
e 40 42
e 40 43
e 40 44
e 40 46
e 40 47
e 40 48
e 40 49
e 40 54
e 40 57
e 40 59
e 40 60
e 40 64
e 40 65
e 40 66
e 40 67
e 40 69
e 40 70
e 40 72
e 40 73
e 40 74
e 40 76
e 40 77
e 40 80
e 40 83
e 40 85
e 40 88
e 40 89
e 40 90
e 40 97
e 40 98
e 40 99
e 40 100
e 40 101
e 40 105
e 40 108
e 40 110
e 40 112
e 40 114
e 40 119
e 40 122
e 40 124
e 40 125
e 40 126
e 40 128
e 40 131
e 40 134
e 40 136
e 40 139
e 40 142
e 40 143
e 40 144
e 40 145
e 40 146
e 40 147
e 41 42
e 41 43
e 41 44
e 41 47
e 41 48
e 41 54
e 41 57
e 41 58
e 41 60
e 41 62
e 41 64
e 41 65
e 41 69
e 41 70
e 41 71
e 41 72
e 41 76
e 41 79
e 41 80
e 41 83
e 41 84
e 41 86
e 41 87
e 41 88
e 41 89
e 41 90
e 41 92
e 41 93
e 41 94
e 41 97
e 41 99
e 41 104
e 41 111
e 41 113
e 41 116
e 41 122
e 41 125
e 41 126
e 41 127
e 41 132
e 41 141
e 41 142
e 41 145
e 41 146
e 41 147
e 41 149
e 41 150
e 42 43
e 42 50
e 42 57
e 42 64
e 42 65
e 42 66
e 42 67
e 42 68
e 42 75
e 42 77
e 42 81
e 42 82
e 42 83
e 42 84
e 42 86
e 42 91
e 42 94
e 42 100
e 42 102
e 42 103
e 42 107
e 42 110
e 42 111
e 42 118
e 42 119
e 42 120
e 42 127
e 42 129
e 42 130
e 42 132
e 42 133
e 42 137
e 42 140
e 42 143
e 42 146
e 42 147
e 42 148
e 42 150
e 43 45
e 43 48
e 43 50
e 43 55
e 43 56
e 43 63
e 43 64
e 43 66
e 43 68
e 43 71
e 43 72
e 43 73
e 43 80
e 43 86
e 43 90
e 43 91
e 43 95
e 43 97
e 43 98
e 43 101
e 43 104
e 43 106
e 43 109
e 43 110
e 43 112
e 43 113
e 43 114
e 43 118
e 43 119
e 43 124
e 43 127
e 43 133
e 43 135
e 43 136
e 43 139
e 43 143
e 43 145
e 43 146
e 43 147
e 43 148
e 44 45
e 44 48
e 44 52
e 44 53
e 44 55
e 44 56
e 44 57
e 44 64
e 44 65
e 44 67
e 44 70
e 44 71
e 44 72
e 44 74
e 44 76
e 44 80
e 44 82
e 44 83
e 44 89
e 44 91
e 44 92
e 44 93
e 44 95
e 44 99
e 44 101
e 44 102
e 44 104
e 44 105
e 44 106
e 44 108
e 44 111
e 44 116
e 44 118
e 44 121
e 44 122
e 44 123
e 44 125
e 44 127
e 44 134
e 44 135
e 44 136
e 44 140
e 44 143
e 44 144
e 44 146
e 44 147
e 44 148
e 45 46
e 45 47
e 45 53
e 45 56
e 45 57
e 45 59
e 45 62
e 45 67
e 45 68
e 45 69
e 45 70
e 45 71
e 45 72
e 45 73
e 45 79
e 45 83
e 45 84
e 45 88
e 45 91
e 45 96
e 45 97
e 45 98
e 45 100
e 45 101
e 45 105
e 45 106
e 45 107
e 45 109
e 45 115
e 45 119
e 45 121
e 45 124
e 45 125
e 45 127
e 45 130
e 45 132
e 45 133
e 45 134
e 45 135
e 45 140
e 45 144
e 45 145
e 45 146
e 45 147
e 46 47
e 46 48
e 46 50
e 46 53
e 46 54
e 46 55
e 46 60
e 46 61
e 46 65
e 46 66
e 46 67
e 46 74
e 46 77
e 46 79
e 46 83
e 46 84
e 46 85
e 46 87
e 46 88
e 46 89
e 46 90
e 46 91
e 46 96
e 46 98
e 46 99
e 46 103
e 46 104
e 46 106
e 46 107
e 46 108
e 46 110
e 46 111
e 46 113
e 46 121
e 46 123
e 46 124
e 46 126
e 46 127
e 46 128
e 46 129
e 46 131
e 46 132
e 46 135
e 46 138
e 46 142
e 46 143
e 46 149
e 46 150
e 47 51
e 47 56
e 47 62
e 47 65
e 47 66
e 47 68
e 47 69
e 47 71
e 47 72
e 47 75
e 47 78
e 47 80
e 47 81
e 47 83
e 47 84
e 47 85
e 47 90
e 47 91
e 47 93
e 47 97
e 47 99
e 47 101
e 47 103
e 47 104
e 47 105
e 47 106
e 47 109
e 47 110
e 47 118
e 47 119
e 47 120
e 47 124
e 47 126
e 47 129
e 47 130
e 47 133
e 47 138
e 47 142
e 47 144
e 47 145
e 48 49
e 48 54
e 48 60
e 48 61
e 48 63
e 48 67
e 48 72
e 48 76
e 48 79
e 48 84
e 48 89
e 48 90
e 48 95
e 48 96
e 48 97
e 48 99
e 48 100
e 48 102
e 48 105
e 48 106
e 48 109
e 48 110
e 48 115
e 48 120
e 48 125
e 48 126
e 48 132
e 48 134
e 48 136
e 48 137
e 48 139
e 48 140
e 48 142
e 48 145
e 48 146
e 49 55
e 49 57
e 49 59
e 49 60
e 49 62
e 49 63
e 49 66
e 49 68
e 49 69
e 49 70
e 49 72
e 49 74
e 49 76
e 49 78
e 49 79
e 49 80
e 49 82
e 49 85
e 49 86
e 49 88
e 49 90
e 49 91
e 49 93
e 49 95
e 49 102
e 49 107
e 49 109
e 49 110
e 49 111
e 49 112
e 49 115
e 49 120
e 49 121
e 49 123
e 49 124
e 49 125
e 49 126
e 49 130
e 49 135
e 49 137
e 49 142
e 49 144
e 49 145
e 49 147
e 49 150
e 50 51
e 50 52
e 50 54
e 50 56
e 50 58
e 50 59
e 50 60
e 50 61
e 50 63
e 50 64
e 50 65
e 50 68
e 50 70
e 50 76
e 50 78
e 50 79
e 50 83
e 50 85
e 50 87
e 50 89
e 50 90
e 50 91
e 50 92
e 50 97
e 50 103
e 50 107
e 50 108
e 50 110
e 50 112
e 50 115
e 50 121
e 50 125
e 50 128
e 50 129
e 50 131
e 50 134
e 50 137
e 50 138
e 50 140
e 50 141
e 50 144
e 50 146
e 50 147
e 50 150
e 51 52
e 51 61
e 51 65
e 51 69
e 51 70
e 51 73
e 51 78
e 51 84
e 51 85
e 51 87
e 51 91
e 51 98
e 51 99
e 51 103
e 51 104
e 51 105
e 51 108
e 51 112
e 51 113
e 51 115
e 51 119
e 51 122
e 51 123
e 51 127
e 51 129
e 51 135
e 51 138
e 51 141
e 51 144
e 51 145
e 52 53
e 52 58
e 52 61
e 52 63
e 52 66
e 52 69
e 52 70
e 52 71
e 52 72
e 52 73
e 52 75
e 52 77
e 52 79
e 52 84
e 52 87
e 52 88
e 52 91
e 52 93
e 52 94
e 52 100
e 52 101
e 52 104
e 52 109
e 52 111
e 52 112
e 52 114
e 52 115
e 52 116
e 52 118
e 52 120
e 52 121
e 52 123
e 52 124
e 52 126
e 52 128
e 52 137
e 52 141
e 52 147
e 52 148
e 52 149
e 53 56
e 53 57
e 53 58
e 53 60
e 53 61
e 53 62
e 53 63
e 53 64
e 53 66
e 53 69
e 53 74
e 53 78
e 53 82
e 53 83
e 53 86
e 53 89
e 53 90
e 53 91
e 53 95
e 53 96
e 53 99
e 53 104
e 53 107
e 53 109
e 53 111
e 53 113
e 53 114
e 53 116
e 53 117
e 53 118
e 53 119
e 53 120
e 53 126
e 53 130
e 53 132
e 53 134
e 53 135
e 53 140
e 53 146
e 53 147
e 54 57
e 54 60
e 54 62
e 54 63
e 54 64
e 54 66
e 54 67
e 54 69
e 54 70
e 54 72
e 54 75
e 54 78
e 54 81
e 54 82
e 54 84
e 54 85
e 54 86
e 54 87
e 54 88
e 54 89
e 54 93
e 54 94
e 54 96
e 54 98
e 54 99
e 54 100
e 54 101
e 54 103
e 54 105
e 54 106
e 54 107
e 54 110
e 54 111
e 54 113
e 54 119
e 54 120
e 54 123
e 54 124
e 54 126
e 54 128
e 54 130
e 54 131
e 54 134
e 54 137
e 54 143
e 54 147
e 54 148
e 54 150
e 55 60
e 55 63
e 55 65
e 55 70
e 55 73
e 55 75
e 55 76
e 55 77
e 55 79
e 55 80
e 55 82
e 55 83
e 55 86
e 55 88
e 55 89
e 55 91
e 55 96
e 55 98
e 55 101
e 55 102
e 55 103
e 55 105
e 55 106
e 55 109
e 55 110
e 55 113
e 55 114
e 55 117
e 55 122
e 55 123
e 55 128
e 55 129
e 55 130
e 55 131
e 55 132
e 55 133
e 55 135
e 55 137
e 55 139
e 55 140
e 55 141
e 55 143
e 55 145
e 55 146
e 55 147
e 55 148
e 56 63
e 56 65
e 56 67
e 56 68
e 56 69
e 56 71
e 56 72
e 56 78
e 56 79
e 56 80
e 56 82
e 56 83
e 56 85
e 56 90
e 56 91
e 56 92
e 56 95
e 56 103
e 56 109
e 56 110
e 56 112
e 56 113
e 56 119
e 56 120
e 56 121
e 56 122
e 56 123
e 56 124
e 56 126
e 56 129
e 56 135
e 56 138
e 56 140
e 56 143
e 56 149
e 57 63
e 57 65
e 57 66
e 57 68
e 57 69
e 57 74
e 57 81
e 57 83
e 57 85
e 57 86
e 57 87
e 57 88
e 57 90
e 57 96
e 57 101
e 57 103
e 57 107
e 57 111
e 57 112
e 57 114
e 57 117
e 57 118
e 57 122
e 57 124
e 57 126
e 57 127
e 57 129
e 57 133
e 57 135
e 57 137
e 57 140
e 57 142
e 57 143
e 57 144
e 57 147
e 57 150
e 58 60
e 58 67
e 58 68
e 58 69
e 58 70
e 58 76
e 58 77
e 58 79
e 58 81
e 58 82
e 58 84
e 58 86
e 58 88
e 58 90
e 58 91
e 58 93
e 58 100
e 58 102
e 58 107
e 58 108
e 58 110
e 58 112
e 58 115
e 58 117
e 58 118
e 58 120
e 58 122
e 58 125
e 58 127
e 58 131
e 58 133
e 58 134
e 58 137
e 58 138
e 58 140
e 58 143
e 58 146
e 58 147
e 58 148
e 59 62
e 59 63
e 59 64
e 59 65
e 59 66
e 59 68
e 59 69
e 59 72
e 59 80
e 59 87
e 59 88
e 59 90
e 59 92
e 59 94
e 59 99
e 59 101
e 59 102
e 59 104
e 59 110
e 59 112
e 59 114
e 59 118
e 59 120
e 59 121
e 59 133
e 59 134
e 59 136
e 59 137
e 59 138
e 59 139
e 59 148
e 59 149
e 60 62
e 60 64
e 60 65
e 60 68
e 60 69
e 60 70
e 60 71
e 60 72
e 60 74
e 60 75
e 60 78
e 60 79
e 60 82
e 60 84
e 60 85
e 60 88
e 60 89
e 60 90
e 60 95
e 60 97
e 60 98
e 60 99
e 60 104
e 60 107
e 60 110
e 60 111
e 60 115
e 60 117
e 60 123
e 60 124
e 60 127
e 60 128
e 60 129
e 60 130
e 60 131
e 60 142
e 60 143
e 60 145
e 60 146
e 61 62
e 61 68
e 61 70
e 61 71
e 61 75
e 61 77
e 61 78
e 61 80
e 61 86
e 61 88
e 61 89
e 61 91
e 61 93
e 61 94
e 61 96
e 61 97
e 61 99
e 61 100
e 61 102
e 61 105
e 61 106
e 61 110
e 61 111
e 61 112
e 61 115
e 61 116
e 61 123
e 61 125
e 61 126
e 61 127
e 61 128
e 61 130
e 61 131
e 61 133
e 61 134
e 61 136
e 61 137
e 61 139
e 61 142
e 61 145
e 61 148
e 62 63
e 62 65
e 62 68
e 62 69
e 62 71
e 62 74
e 62 76
e 62 78
e 62 80
e 62 81
e 62 85
e 62 92
e 62 93
e 62 94
e 62 96
e 62 98
e 62 104
e 62 108
e 62 111
e 62 112
e 62 114
e 62 118
e 62 124
e 62 126
e 62 127
e 62 129
e 62 130
e 62 131
e 62 134
e 62 136
e 62 137
e 62 140
e 62 143
e 62 144
e 62 146
e 62 148
e 62 149
e 62 150
e 63 69
e 63 71
e 63 79
e 63 80
e 63 81
e 63 82
e 63 85
e 63 86
e 63 88
e 63 96
e 63 98
e 63 99
e 63 109
e 63 110
e 63 112
e 63 113
e 63 121
e 63 126
e 63 132
e 63 133
e 63 134
e 63 137
e 63 140
e 63 141
e 63 144
e 63 145
e 63 147
e 63 148
e 63 149
e 63 150
e 64 67
e 64 68
e 64 69
e 64 71
e 64 74
e 64 77
e 64 79
e 64 82
e 64 83
e 64 89
e 64 92
e 64 93
e 64 94
e 64 95
e 64 96
e 64 99
e 64 102
e 64 103
e 64 104
e 64 105
e 64 106
e 64 107
e 64 111
e 64 118
e 64 120
e 64 122
e 64 125
e 64 128
e 64 129
e 64 131
e 64 135
e 64 137
e 64 138
e 64 144
e 64 147
e 64 148
e 64 149
e 65 69
e 65 71
e 65 76
e 65 79
e 65 80
e 65 81
e 65 82
e 65 84
e 65 88
e 65 89
e 65 90
e 65 91
e 65 93
e 65 95
e 65 98
e 65 100
e 65 101
e 65 102
e 65 108
e 65 112
e 65 114
e 65 118
e 65 122
e 65 123
e 65 125
e 65 127
e 65 133
e 65 134
e 65 135
e 65 139
e 65 140
e 65 141
e 65 142
e 65 145
e 65 148
e 66 69
e 66 70
e 66 72
e 66 73
e 66 78
e 66 80
e 66 81
e 66 82
e 66 90
e 66 91
e 66 93
e 66 101
e 66 102
e 66 104
e 66 105
e 66 107
e 66 112
e 66 113
e 66 119
e 66 121
e 66 123
e 66 125
e 66 132
e 66 134
e 66 138
e 66 139
e 66 143
e 66 146
e 67 70
e 67 71
e 67 74
e 67 75
e 67 76
e 67 77
e 67 83
e 67 85
e 67 87
e 67 90
e 67 91
e 67 93
e 67 95
e 67 96
e 67 97
e 67 99
e 67 100
e 67 101
e 67 102
e 67 103
e 67 105
e 67 107
e 67 108
e 67 109
e 67 110
e 67 112
e 67 113
e 67 116
e 67 117
e 67 118
e 67 119
e 67 120
e 67 122
e 67 124
e 67 129
e 67 132
e 67 133
e 67 134
e 67 135
e 67 136
e 67 138
e 67 139
e 67 140
e 67 142
e 67 143
e 67 145
e 67 147
e 67 148
e 67 149
e 68 70
e 68 71
e 68 74
e 68 75
e 68 80
e 68 84
e 68 87
e 68 88
e 68 91
e 68 95
e 68 96
e 68 98
e 68 101
e 68 102
e 68 103
e 68 106
e 68 109
e 68 112
e 68 113
e 68 114
e 68 115
e 68 117
e 68 119
e 68 121
e 68 122
e 68 124
e 68 127
e 68 129
e 68 130
e 68 132
e 68 136
e 68 138
e 68 139
e 68 141
e 68 142
e 68 148
e 68 149
e 69 70
e 69 73
e 69 74
e 69 75
e 69 81
e 69 83
e 69 84
e 69 93
e 69 95
e 69 96
e 69 97
e 69 101
e 69 103
e 69 111
e 69 112
e 69 114
e 69 115
e 69 118
e 69 122
e 69 123
e 69 124
e 69 125
e 69 126
e 69 135
e 69 139
e 69 141
e 69 142
e 69 145
e 70 73
e 70 76
e 70 78
e 70 79
e 70 83
e 70 85
e 70 87
e 70 88
e 70 89
e 70 91
e 70 94
e 70 101
e 70 102
e 70 104
e 70 107
e 70 108
e 70 111
e 70 113
e 70 114
e 70 116
e 70 120
e 70 128
e 70 131
e 70 133
e 70 138
e 70 139
e 70 141
e 70 143
e 71 76
e 71 77
e 71 80
e 71 82
e 71 84
e 71 92
e 71 94
e 71 98
e 71 101
e 71 102
e 71 104
e 71 108
e 71 110
e 71 111
e 71 113
e 71 115
e 71 116
e 71 124
e 71 127
e 71 129
e 71 131
e 71 134
e 71 136
e 71 137
e 71 138
e 71 140
e 71 143
e 71 144
e 71 146
e 71 147
e 71 148
e 71 150
e 72 76
e 72 77
e 72 78
e 72 80
e 72 81
e 72 82
e 72 83
e 72 86
e 72 87
e 72 89
e 72 91
e 72 92
e 72 93
e 72 94
e 72 98
e 72 99
e 72 100
e 72 104
e 72 105
e 72 109
e 72 110
e 72 112
e 72 117
e 72 118
e 72 121
e 72 122
e 72 123
e 72 127
e 72 129
e 72 131
e 72 132
e 72 134
e 72 135
e 72 137
e 72 139
e 72 141
e 72 144
e 72 145
e 72 146
e 72 150
e 73 79
e 73 87
e 73 89
e 73 90
e 73 95
e 73 96
e 73 99
e 73 101
e 73 107
e 73 114
e 73 115
e 73 118
e 73 126
e 73 128
e 73 133
e 73 134
e 73 136
e 73 139
e 73 140
e 73 141
e 73 142
e 73 144
e 73 148
e 74 84
e 74 92
e 74 95
e 74 96
e 74 97
e 74 98
e 74 99
e 74 102
e 74 104
e 74 106
e 74 113
e 74 115
e 74 116
e 74 117
e 74 120
e 74 121
e 74 123
e 74 127
e 74 128
e 74 129
e 74 131
e 74 136
e 74 138
e 74 140
e 74 141
e 74 144
e 74 147
e 74 149
e 75 79
e 75 84
e 75 87
e 75 89
e 75 91
e 75 95
e 75 96
e 75 101
e 75 104
e 75 105
e 75 106
e 75 108
e 75 113
e 75 115
e 75 119
e 75 123
e 75 126
e 75 127
e 75 130
e 75 131
e 75 137
e 75 138
e 75 139
e 75 140
e 75 141
e 75 143
e 75 148
e 75 150
e 76 77
e 76 78
e 76 80
e 76 86
e 76 88
e 76 91
e 76 92
e 76 96
e 76 103
e 76 105
e 76 109
e 76 110
e 76 113
e 76 115
e 76 116
e 76 119
e 76 120
e 76 122
e 76 124
e 76 126
e 76 128
e 76 130
e 76 131
e 76 132
e 76 133
e 76 141
e 76 142
e 76 143
e 76 145
e 76 150
e 77 80
e 77 81
e 77 89
e 77 91
e 77 95
e 77 98
e 77 99
e 77 100
e 77 101
e 77 104
e 77 106
e 77 108
e 77 110
e 77 111
e 77 114
e 77 116
e 77 117
e 77 120
e 77 121
e 77 125
e 77 126
e 77 128
e 77 131
e 77 132
e 77 138
e 77 140
e 77 142
e 77 143
e 77 149
e 78 80
e 78 84
e 78 85
e 78 89
e 78 90
e 78 93
e 78 96
e 78 97
e 78 101
e 78 103
e 78 108
e 78 109
e 78 110
e 78 113
e 78 116
e 78 119
e 78 120
e 78 121
e 78 123
e 78 125
e 78 127
e 78 129
e 78 132
e 78 133
e 78 134
e 78 137
e 78 140
e 78 143
e 78 148
e 78 149
e 78 150
e 79 80
e 79 81
e 79 82
e 79 84
e 79 86
e 79 90
e 79 91
e 79 92
e 79 93
e 79 94
e 79 97
e 79 98
e 79 99
e 79 100
e 79 104
e 79 105
e 79 107
e 79 108
e 79 112
e 79 113
e 79 118
e 79 119
e 79 126
e 79 129
e 79 130
e 79 133
e 79 138
e 79 141
e 79 143
e 79 145
e 79 146
e 79 147
e 80 81
e 80 83
e 80 84
e 80 85
e 80 89
e 80 92
e 80 93
e 80 97
e 80 98
e 80 99
e 80 102
e 80 103
e 80 113
e 80 114
e 80 115
e 80 116
e 80 117
e 80 120
e 80 121
e 80 123
e 80 125
e 80 126
e 80 127
e 80 128
e 80 132
e 80 133
e 80 134
e 80 137
e 80 140
e 80 141
e 80 142
e 80 144
e 80 148
e 81 83
e 81 84
e 81 87
e 81 89
e 81 90
e 81 92
e 81 97
e 81 98
e 81 99
e 81 100
e 81 104
e 81 107
e 81 114
e 81 117
e 81 122
e 81 123
e 81 125
e 81 127
e 81 128
e 81 129
e 81 130
e 81 131
e 81 134
e 81 135
e 81 138
e 81 149
e 81 150
e 82 86
e 82 87
e 82 93
e 82 103
e 82 104
e 82 112
e 82 114
e 82 115
e 82 118
e 82 120
e 82 121
e 82 123
e 82 127
e 82 128
e 82 132
e 82 133
e 82 135
e 82 138
e 82 139
e 82 142
e 82 143
e 82 147
e 83 84
e 83 85
e 83 94
e 83 95
e 83 99
e 83 104
e 83 105
e 83 108
e 83 111
e 83 112
e 83 115
e 83 119
e 83 122
e 83 124
e 83 125
e 83 127
e 83 128
e 83 129
e 83 133
e 83 144
e 83 149
e 83 150
e 84 86
e 84 87
e 84 89
e 84 91
e 84 93
e 84 94
e 84 99
e 84 102
e 84 103
e 84 105
e 84 107
e 84 109
e 84 110
e 84 112
e 84 114
e 84 115
e 84 121
e 84 124
e 84 130
e 84 131
e 84 133
e 84 134
e 84 138
e 84 141
e 84 145
e 84 146
e 84 147
e 84 149
e 85 86
e 85 88
e 85 90
e 85 91
e 85 92
e 85 96
e 85 98
e 85 101
e 85 104
e 85 107
e 85 111
e 85 112
e 85 113
e 85 115
e 85 117
e 85 120
e 85 124
e 85 126
e 85 131
e 85 132
e 85 133
e 85 134
e 85 135
e 85 136
e 85 139
e 85 140
e 85 142
e 85 148
e 86 88
e 86 91
e 86 92
e 86 94
e 86 95
e 86 96
e 86 99
e 86 100
e 86 103
e 86 104
e 86 106
e 86 108
e 86 110
e 86 115
e 86 116
e 86 119
e 86 120
e 86 121
e 86 123
e 86 126
e 86 127
e 86 129
e 86 130
e 86 133
e 86 136
e 86 137
e 86 138
e 86 139
e 86 140
e 86 142
e 86 143
e 86 144
e 86 146
e 86 148
e 86 150
e 87 88
e 87 90
e 87 91
e 87 92
e 87 95
e 87 96
e 87 97
e 87 99
e 87 101
e 87 103
e 87 108
e 87 111
e 87 113
e 87 115
e 87 116
e 87 119
e 87 121
e 87 122
e 87 124
e 87 127
e 87 128
e 87 129
e 87 130
e 87 133
e 87 135
e 87 137
e 87 139
e 87 140
e 87 144
e 87 145
e 87 147
e 87 149
e 88 91
e 88 93
e 88 101
e 88 104
e 88 105
e 88 109
e 88 110
e 88 117
e 88 122
e 88 123
e 88 124
e 88 125
e 88 128
e 88 129
e 88 130
e 88 133
e 88 141
e 88 143
e 88 145
e 88 146
e 88 148
e 88 150
e 89 94
e 89 95
e 89 96
e 89 97
e 89 102
e 89 104
e 89 107
e 89 109
e 89 110
e 89 112
e 89 116
e 89 118
e 89 119
e 89 120
e 89 121
e 89 123
e 89 124
e 89 126
e 89 130
e 89 135
e 89 143
e 89 146
e 90 92
e 90 93
e 90 94
e 90 98
e 90 99
e 90 103
e 90 105
e 90 110
e 90 111
e 90 112
e 90 116
e 90 117
e 90 118
e 90 119
e 90 122
e 90 123
e 90 128
e 90 133
e 90 134
e 90 142
e 90 147
e 90 149
e 91 92
e 91 93
e 91 97
e 91 99
e 91 102
e 91 104
e 91 105
e 91 112
e 91 116
e 91 120
e 91 121
e 91 122
e 91 123
e 91 125
e 91 126
e 91 128
e 91 130
e 91 131
e 91 135
e 91 140
e 91 141
e 91 142
e 91 143
e 91 144
e 91 146
e 91 148
e 92 94
e 92 95
e 92 96
e 92 97
e 92 98
e 92 103
e 92 107
e 92 110
e 92 114
e 92 117
e 92 121
e 92 123
e 92 127
e 92 135
e 92 136
e 92 137
e 92 139
e 92 142
e 92 143
e 92 145
e 92 146
e 92 150
e 93 99
e 93 101
e 93 106
e 93 107
e 93 110
e 93 112
e 93 114
e 93 116
e 93 124
e 93 127
e 93 131
e 93 136
e 93 140
e 93 141
e 93 149
e 93 150
e 94 95
e 94 96
e 94 103
e 94 104
e 94 105
e 94 107
e 94 112
e 94 115
e 94 117
e 94 118
e 94 122
e 94 124
e 94 126
e 94 127
e 94 128
e 94 129
e 94 131
e 94 133
e 94 135
e 94 139
e 94 144
e 94 146
e 94 147
e 95 96
e 95 98
e 95 103
e 95 109
e 95 113
e 95 115
e 95 117
e 95 118
e 95 119
e 95 120
e 95 125
e 95 127
e 95 130
e 95 131
e 95 133
e 95 137
e 95 139
e 95 141
e 95 143
e 95 150
e 96 99
e 96 106
e 96 109
e 96 111
e 96 112
e 96 114
e 96 115
e 96 117
e 96 119
e 96 123
e 96 125
e 96 127
e 96 129
e 96 134
e 96 135
e 96 137
e 96 139
e 96 140
e 96 142
e 96 143
e 96 145
e 96 148
e 97 98
e 97 103
e 97 105
e 97 106
e 97 107
e 97 108
e 97 110
e 97 111
e 97 112
e 97 114
e 97 115
e 97 117
e 97 120
e 97 122
e 97 123
e 97 130
e 97 131
e 97 132
e 97 133
e 97 134
e 97 138
e 97 139
e 97 144
e 97 145
e 97 148
e 98 99
e 98 100
e 98 104
e 98 106
e 98 107
e 98 108
e 98 110
e 98 111
e 98 113
e 98 120
e 98 121
e 98 130
e 98 132
e 98 133
e 98 135
e 98 140
e 98 146
e 98 148
e 99 109
e 99 110
e 99 118
e 99 119
e 99 128
e 99 130
e 99 131
e 99 135
e 99 136
e 99 138
e 99 140
e 99 141
e 99 142
e 99 145
e 99 146
e 99 149
e 100 106
e 100 108
e 100 110
e 100 111
e 100 112
e 100 113
e 100 114
e 100 117
e 100 120
e 100 121
e 100 122
e 100 123
e 100 124
e 100 126
e 100 127
e 100 129
e 100 131
e 100 132
e 100 133
e 100 134
e 100 137
e 100 138
e 100 139
e 100 140
e 100 141
e 100 144
e 100 146
e 100 147
e 100 148
e 100 149
e 101 103
e 101 104
e 101 107
e 101 109
e 101 110
e 101 112
e 101 113
e 101 114
e 101 115
e 101 119
e 101 120
e 101 121
e 101 122
e 101 124
e 101 126
e 101 127
e 101 131
e 101 133
e 101 134
e 101 137
e 101 139
e 101 140
e 101 146
e 101 147
e 102 109
e 102 110
e 102 113
e 102 114
e 102 115
e 102 118
e 102 120
e 102 121
e 102 122
e 102 123
e 102 128
e 102 132
e 102 133
e 102 136
e 102 139
e 102 140
e 102 141
e 102 145
e 102 146
e 102 147
e 102 150
e 103 105
e 103 109
e 103 112
e 103 115
e 103 116
e 103 119
e 103 122
e 103 124
e 103 128
e 103 130
e 103 132
e 103 135
e 103 136
e 103 142
e 103 143
e 103 144
e 103 148
e 104 105
e 104 106
e 104 110
e 104 111
e 104 116
e 104 117
e 104 118
e 104 120
e 104 121
e 104 122
e 104 123
e 104 125
e 104 129
e 104 134
e 104 136
e 104 139
e 104 142
e 104 144
e 104 146
e 104 149
e 104 150
e 105 111
e 105 114
e 105 118
e 105 119
e 105 122
e 105 123
e 105 124
e 105 125
e 105 126
e 105 127
e 105 129
e 105 130
e 105 132
e 105 136
e 105 139
e 105 140
e 105 146
e 105 147
e 106 107
e 106 108
e 106 109
e 106 111
e 106 112
e 106 117
e 106 119
e 106 120
e 106 123
e 106 124
e 106 125
e 106 127
e 106 128
e 106 131
e 106 134
e 106 136
e 106 138
e 106 140
e 106 146
e 106 149
e 107 109
e 107 118
e 107 123
e 107 124
e 107 127
e 107 128
e 107 131
e 107 138
e 107 146
e 107 148
e 107 150
e 108 110
e 108 114
e 108 116
e 108 121
e 108 122
e 108 124
e 108 126
e 108 129
e 108 131
e 108 132
e 108 136
e 108 140
e 108 141
e 108 142
e 108 144
e 108 145
e 108 146
e 108 147
e 109 112
e 109 114
e 109 115
e 109 117
e 109 123
e 109 124
e 109 128
e 109 130
e 109 132
e 109 134
e 109 135
e 109 136
e 109 138
e 109 142
e 109 144
e 109 145
e 109 146
e 109 148
e 109 149
e 109 150
e 110 111
e 110 112
e 110 116
e 110 121
e 110 124
e 110 129
e 110 133
e 110 136
e 110 144
e 111 113
e 111 114
e 111 115
e 111 117
e 111 119
e 111 123
e 111 124
e 111 125
e 111 126
e 111 135
e 111 137
e 111 138
e 111 142
e 111 148
e 111 149
e 112 117
e 112 119
e 112 123
e 112 125
e 112 128
e 112 134
e 112 136
e 112 137
e 112 138
e 112 139
e 112 140
e 112 144
e 112 145
e 112 146
e 112 149
e 113 122
e 113 123
e 113 125
e 113 126
e 113 127
e 113 130
e 113 131
e 113 133
e 113 135
e 113 136
e 113 137
e 113 138
e 113 139
e 113 140
e 113 141
e 113 148
e 113 150
e 114 116
e 114 118
e 114 126
e 114 129
e 114 130
e 114 131
e 114 140
e 114 142
e 114 143
e 114 144
e 115 117
e 115 121
e 115 124
e 115 127
e 115 134
e 115 135
e 115 136
e 115 139
e 115 140
e 115 141
e 115 143
e 115 145
e 115 146
e 115 147
e 115 149
e 116 117
e 116 118
e 116 119
e 116 121
e 116 123
e 116 127
e 116 128
e 116 133
e 116 135
e 116 137
e 116 141
e 116 146
e 116 147
e 116 148
e 116 149
e 116 150
e 117 122
e 117 124
e 117 128
e 117 129
e 117 131
e 117 133
e 117 135
e 117 141
e 117 143
e 117 144
e 117 148
e 118 121
e 118 122
e 118 124
e 118 128
e 118 131
e 118 133
e 118 134
e 118 136
e 118 137
e 118 142
e 118 148
e 118 150
e 119 121
e 119 122
e 119 127
e 119 128
e 119 129
e 119 132
e 119 133
e 119 134
e 119 135
e 119 136
e 119 140
e 119 146
e 120 121
e 120 123
e 120 126
e 120 127
e 120 131
e 120 134
e 120 140
e 120 141
e 120 143
e 120 145
e 120 147
e 120 149
e 121 122
e 121 124
e 121 126
e 121 130
e 121 131
e 121 133
e 121 135
e 121 136
e 121 137
e 121 140
e 121 142
e 121 143
e 121 147
e 121 148
e 121 149
e 122 124
e 122 125
e 122 127
e 122 128
e 122 129
e 122 132
e 122 139
e 122 143
e 122 145
e 122 147
e 123 124
e 123 125
e 123 126
e 123 129
e 123 130
e 123 134
e 123 136
e 123 140
e 123 146
e 123 148
e 123 149
e 124 129
e 124 131
e 124 135
e 124 136
e 124 138
e 124 140
e 124 145
e 125 129
e 125 130
e 125 134
e 125 135
e 125 138
e 125 141
e 125 147
e 125 148
e 125 149
e 126 128
e 126 129
e 126 131
e 126 132
e 126 137
e 126 140
e 126 141
e 126 147
e 126 149
e 127 129
e 127 135
e 127 137
e 127 138
e 127 139
e 127 142
e 127 143
e 127 144
e 127 147
e 127 148
e 127 149
e 127 150
e 128 129
e 128 130
e 128 131
e 128 133
e 128 134
e 128 136
e 128 139
e 128 143
e 128 146
e 128 149
e 128 150
e 129 134
e 129 137
e 129 139
e 129 140
e 129 141
e 129 143
e 129 146
e 129 148
e 130 133
e 130 137
e 130 139
e 130 140
e 130 141
e 130 149
e 130 150
e 131 137
e 131 138
e 131 140
e 131 143
e 131 145
e 131 149
e 132 135
e 132 136
e 132 138
e 132 141
e 132 145
e 132 148
e 132 149
e 132 150
e 133 134
e 133 148
e 133 150
e 134 135
e 134 136
e 134 138
e 134 150
e 135 138
e 135 139
e 135 140
e 135 143
e 135 146
e 136 145
e 136 148
e 137 139
e 137 143
e 137 144
e 137 146
e 137 147
e 137 149
e 138 140
e 138 144
e 138 148
e 138 149
e 138 150
e 139 140
e 139 141
e 139 145
e 139 148
e 140 141
e 140 145
e 140 147
e 140 149
e 141 142
e 141 145
e 141 147
e 141 150
e 142 143
e 142 146
e 142 150
e 143 146
e 143 148
e 144 147
e 145 146
e 145 148
e 145 149
e 146 148
e 147 149
